c Generated map
c Size: 8 * 8, weights in range: 1 to 10, walls: True, with ratio 0.05
c dim 1 of 10
c
p sp 64 100
c graph contains 64 nodes and 100 arcs
c
a 1 9 1
a 9 1 1
a 1 2 4
a 2 1 4
a 2 10 7
a 10 2 7
a 2 3 2
a 3 2 2
a 3 11 1
a 11 3 1
a 3 4 7
a 4 3 7
a 4 12 8
a 12 4 8
a 4 5 2
a 5 4 2
a 5 13 6
a 13 5 6
a 5 6 9
a 6 5 9
a 6 14 10
a 14 6 10
a 6 7 6
a 7 6 6
a 7 15 1
a 15 7 1
a 7 8 10
a 8 7 10
a 8 16 9
a 16 8 9
a 9 17 2
a 17 9 2
a 9 10 8
a 10 9 8
a 10 18 2
a 18 10 2
a 10 11 2
a 11 10 2
a 11 12 10
a 12 11 10
a 12 20 10
a 20 12 10
a 12 13 5
a 13 12 5
a 13 21 6
a 21 13 6
a 13 14 6
a 14 13 6
a 14 22 9
a 22 14 9
a 14 15 8
a 15 14 8
a 15 23 5
a 23 15 5
a 15 16 7
a 16 15 7
a 16 24 1
a 24 16 1
a 17 25 2
a 25 17 2
a 17 18 10
a 18 17 10
a 18 26 1
a 26 18 1
a 20 21 9
a 21 20 9
a 21 29 10
a 29 21 10
a 21 22 10
a 22 21 10
a 22 30 1
a 30 22 1
a 22 23 8
a 23 22 8
a 23 31 8
a 31 23 8
a 23 24 7
a 24 23 7
a 24 32 10
a 32 24 10
a 25 33 10
a 33 25 10
a 25 26 8
a 26 25 8
a 26 34 1
a 34 26 1
a 26 27 10
a 27 26 10
a 27 35 10
a 35 27 10
a 29 37 2
a 37 29 2
a 29 30 7
a 30 29 7
a 30 38 1
a 38 30 1
a 30 31 10
a 31 30 10
a 31 39 6
a 39 31 6
a 31 32 2
a 32 31 2
a 32 40 1
a 40 32 1
a 33 41 1
a 41 33 1
a 33 34 9
a 34 33 9
a 34 42 7
a 42 34 7
a 34 35 8
a 35 34 8
a 35 43 4
a 43 35 4
a 35 36 5
a 36 35 5
a 36 44 9
a 44 36 9
a 36 37 6
a 37 36 6
a 37 45 9
a 45 37 9
a 37 38 4
a 38 37 4
a 38 46 3
a 46 38 3
a 38 39 4
a 39 38 4
a 39 47 8
a 47 39 8
a 39 40 7
a 40 39 7
a 40 48 2
a 48 40 2
a 41 49 9
a 49 41 9
a 41 42 7
a 42 41 7
a 42 50 10
a 50 42 10
a 42 43 2
a 43 42 2
a 43 51 6
a 51 43 6
a 43 44 5
a 44 43 5
a 44 52 2
a 52 44 2
a 44 45 4
a 45 44 4
a 45 46 2
a 46 45 2
a 46 54 2
a 54 46 2
a 46 47 7
a 47 46 7
a 47 55 3
a 55 47 3
a 47 48 4
a 48 47 4
a 48 56 7
a 56 48 7
a 49 57 2
a 57 49 2
a 49 50 3
a 50 49 3
a 50 58 1
a 58 50 1
a 50 51 7
a 51 50 7
a 51 59 6
a 59 51 6
a 51 52 3
a 52 51 3
a 52 60 5
a 60 52 5
a 54 62 6
a 62 54 6
a 54 55 5
a 55 54 5
a 55 63 6
a 63 55 6
a 55 56 7
a 56 55 7
a 56 64 1
a 64 56 1
a 57 58 10
a 58 57 10
a 58 59 3
a 59 58 3
a 59 60 10
a 60 59 10
a 60 61 9
a 61 60 9
a 61 62 6
a 62 61 6
a 62 63 9
a 63 62 9
a 63 64 9
a 64 63 9
